c CNF file corresponding to a (partial) station packing problem.
p cnf 5019 229
1 2 3 4 5 6 7 8 9 10 11 12 13 14 0
-1 -2 0
-1 -3 0
-1 -4 0
-1 -5 0
-1 -6 0
-1 -7 0
-1 -8 0
-1 -9 0
-1 -10 0
-1 -11 0
-1 -12 0
-1 -13 0
-1 -14 0
-2 -3 0
-2 -4 0
-2 -5 0
-2 -6 0
-2 -7 0
-2 -8 0
-2 -9 0
-2 -10 0
-2 -11 0
-2 -12 0
-2 -13 0
-2 -14 0
-3 -4 0
-3 -5 0
-3 -6 0
-3 -7 0
-3 -8 0
-3 -9 0
-3 -10 0
-3 -11 0
-3 -12 0
-3 -13 0
-3 -14 0
-4 -5 0
-4 -6 0
-4 -7 0
-4 -8 0
-4 -9 0
-4 -10 0
-4 -11 0
-4 -12 0
-4 -13 0
-4 -14 0
-5 -6 0
-5 -7 0
-5 -8 0
-5 -9 0
-5 -10 0
-5 -11 0
-5 -12 0
-5 -13 0
-5 -14 0
-6 -7 0
-6 -8 0
-6 -9 0
-6 -10 0
-6 -11 0
-6 -12 0
-6 -13 0
-6 -14 0
-7 -8 0
-7 -9 0
-7 -10 0
-7 -11 0
-7 -12 0
-7 -13 0
-7 -14 0
-8 -9 0
-8 -10 0
-8 -11 0
-8 -12 0
-8 -13 0
-8 -14 0
-9 -10 0
-9 -11 0
-9 -12 0
-9 -13 0
-9 -14 0
-10 -11 0
-10 -12 0
-10 -13 0
-10 -14 0
-11 -12 0
-11 -13 0
-11 -14 0
-12 -13 0
-12 -14 0
-13 -14 0
5003 5004 5005 5006 5007 5008 5009 5010 5011 5012 5013 5014 5015 5016 5017 5018 5019 0
-5003 -5004 0
-5003 -5005 0
-5003 -5006 0
-5003 -5007 0
-5003 -5008 0
-5003 -5009 0
-5003 -5010 0
-5003 -5011 0
-5003 -5012 0
-5003 -5013 0
-5003 -5014 0
-5003 -5015 0
-5003 -5016 0
-5003 -5017 0
-5003 -5018 0
-5003 -5019 0
-5004 -5005 0
-5004 -5006 0
-5004 -5007 0
-5004 -5008 0
-5004 -5009 0
-5004 -5010 0
-5004 -5011 0
-5004 -5012 0
-5004 -5013 0
-5004 -5014 0
-5004 -5015 0
-5004 -5016 0
-5004 -5017 0
-5004 -5018 0
-5004 -5019 0
-5005 -5006 0
-5005 -5007 0
-5005 -5008 0
-5005 -5009 0
-5005 -5010 0
-5005 -5011 0
-5005 -5012 0
-5005 -5013 0
-5005 -5014 0
-5005 -5015 0
-5005 -5016 0
-5005 -5017 0
-5005 -5018 0
-5005 -5019 0
-5006 -5007 0
-5006 -5008 0
-5006 -5009 0
-5006 -5010 0
-5006 -5011 0
-5006 -5012 0
-5006 -5013 0
-5006 -5014 0
-5006 -5015 0
-5006 -5016 0
-5006 -5017 0
-5006 -5018 0
-5006 -5019 0
-5007 -5008 0
-5007 -5009 0
-5007 -5010 0
-5007 -5011 0
-5007 -5012 0
-5007 -5013 0
-5007 -5014 0
-5007 -5015 0
-5007 -5016 0
-5007 -5017 0
-5007 -5018 0
-5007 -5019 0
-5008 -5009 0
-5008 -5010 0
-5008 -5011 0
-5008 -5012 0
-5008 -5013 0
-5008 -5014 0
-5008 -5015 0
-5008 -5016 0
-5008 -5017 0
-5008 -5018 0
-5008 -5019 0
-5009 -5010 0
-5009 -5011 0
-5009 -5012 0
-5009 -5013 0
-5009 -5014 0
-5009 -5015 0
-5009 -5016 0
-5009 -5017 0
-5009 -5018 0
-5009 -5019 0
-5010 -5011 0
-5010 -5012 0
-5010 -5013 0
-5010 -5014 0
-5010 -5015 0
-5010 -5016 0
-5010 -5017 0
-5010 -5018 0
-5010 -5019 0
-5011 -5012 0
-5011 -5013 0
-5011 -5014 0
-5011 -5015 0
-5011 -5016 0
-5011 -5017 0
-5011 -5018 0
-5011 -5019 0
-5012 -5013 0
-5012 -5014 0
-5012 -5015 0
-5012 -5016 0
-5012 -5017 0
-5012 -5018 0
-5012 -5019 0
-5013 -5014 0
-5013 -5015 0
-5013 -5016 0
-5013 -5017 0
-5013 -5018 0
-5013 -5019 0
-5014 -5015 0
-5014 -5016 0
-5014 -5017 0
-5014 -5018 0
-5014 -5019 0
-5015 -5016 0
-5015 -5017 0
-5015 -5018 0
-5015 -5019 0
-5016 -5017 0
-5016 -5018 0
-5016 -5019 0
-5017 -5018 0
-5017 -5019 0
-5018 -5019 0
